num_features = 60;
num_usage_limits = 6;
num_plans = 4;
num_addons = 1;

features = ["goals","issues","projects","forms","customizableWorkflows","projectTemplates","backlogView","listView","timelineView","calendarView","summaryView","dashboards","reportingAndInsights","iosAndAndroidApps","sites","storage","emailNotifications","userRolesAndPermissions","anonymousAccess","advancedPlanning","singleProjectDependencyManagement","crossProjectDependencyManagement","capacityManagement","expandableIssueHierarchy","scenarioModelling","approvals","atlassianIntelligence","communication","employeeDirectory","automation","atlassianAnalytics","atlassianDataLake","dataConnectors","domainVerification","accountCapture","sessionDurationManagement","adminInsights","sandbox","releaseTracks","projectArchiving","userCounts","centralizedUserSubscriptions","productRequests","atlassianGuard","passwordPolicies","encryptionInTransitAndAtRest","businessContinuityAndDisasterRecovery","mobileDeviceManagement","auditLogs","dataResidency","issueLevelsecurity","ipAllowlisting","multipleIdp","auditLogsForUsersActivity","byokEncryption","communitySupport","localBusinessHoursSupport","24x7Support","enterpriseSupport","uptimeSLA"];
usage_limits = ["usersLimit","sitesLimit","totalAutomationLimit","perUserAutomationLimit","storageLimit","emailNotificationsLimit"];
plans = ["FREE","STANDARD","PREMIUM","ENTERPRISE"];
addons = ["atlassianGuardAddOn"];

plans_prices = [0,7.16,12.48,124.80000000000001];
addons_prices = [100];

linked_features = array2d(USAGE_LIMITS, FEATURES, [
    % usersLimit
    0,0,0,0,0,0,0,0,0,0,0,0,0,0,0,0,0,0,0,0,0,0,0,0,0,0,0,0,0,0,0,0,0,0,0,0,0,0,0,0,0,0,0,0,0,0,0,0,0,0,0,0,0,0,0,0,0,0,0,0,
    % sitesLimit
    0,0,0,0,0,0,0,0,0,0,0,0,0,0,0,0,0,0,0,0,0,0,0,0,0,0,0,0,0,0,0,0,0,0,0,0,0,0,0,0,0,0,0,0,0,0,0,0,0,0,0,0,0,0,0,0,0,0,0,0,
    % totalAutomationLimit
    0,0,0,0,0,0,0,0,0,0,0,0,0,0,0,0,0,0,0,0,0,0,0,0,0,0,0,0,0,1,0,0,0,0,0,0,0,0,0,0,0,0,0,0,0,0,0,0,0,0,0,0,0,0,0,0,0,0,0,0,
    % perUserAutomationLimit
    0,0,0,0,0,0,0,0,0,0,0,0,0,0,0,0,0,0,0,0,0,0,0,0,0,0,0,0,0,1,0,0,0,0,0,0,0,0,0,0,0,0,0,0,0,0,0,0,0,0,0,0,0,0,0,0,0,0,0,0,
    % storageLimit
    0,0,0,0,0,0,0,0,0,0,0,0,0,0,0,1,0,0,0,0,0,0,0,0,0,0,0,0,0,0,0,0,0,0,0,0,0,0,0,0,0,0,0,0,0,0,0,0,0,0,0,0,0,0,0,0,0,0,0,0,
    % emailNotificationsLimit
    0,0,0,0,0,0,0,0,0,0,0,0,0,0,0,0,1,0,0,0,0,0,0,0,0,0,0,0,0,0,0,0,0,0,0,0,0,0,0,0,0,0,0,0,0,0,0,0,0,0,0,0,0,0,0,0,0,0,0,0
]);

plans_features = array2d(PLANS, FEATURES, [
    % FREE
    1,1,1,1,1,1,1,1,1,1,1,1,1,1,1,1,1,0,0,0,1,0,0,0,0,0,0,1,1,1,0,0,0,1,1,1,0,0,0,0,0,0,0,0,1,1,1,1,0,0,0,0,0,0,0,1,0,0,0,0,
    % STANDARD
    1,1,1,1,1,1,1,1,1,1,1,1,1,1,1,1,1,1,1,0,1,0,0,0,0,0,0,1,1,1,0,0,0,1,1,1,0,0,0,0,0,0,0,0,1,1,1,1,1,1,1,0,0,0,0,1,1,0,0,0,
    % PREMIUM
    1,1,1,1,1,1,1,1,1,1,1,1,1,1,1,1,1,1,1,1,1,1,1,1,1,1,1,1,1,1,0,0,0,1,1,1,1,1,1,1,0,0,0,0,1,1,1,1,1,1,1,1,0,0,0,1,1,1,0,1,
    % ENTERPRISE
    1,1,1,1,1,1,1,1,1,1,1,1,1,1,1,1,1,1,1,1,1,1,1,1,1,1,1,1,1,1,1,1,1,1,1,1,1,1,1,1,1,1,1,1,1,1,1,1,1,1,1,1,1,1,1,1,1,1,1,1
]);
plans_usage_limits = array2d(PLANS, USAGE_LIMITS, [
    % FREE
    10,1,100,0,2,100,
    % STANDARD
    50000,1,1700,0,250,1000000000,
    % PREMIUM
    50000,1,1000000000,1000,1000000000,1000000000,
    % ENTERPRISE
    50000,150,1000000000,1000000000,1000000000,1000000000
]);

addons_features = array2d(ADDONS, FEATURES, [
    % atlassianGuardAddOn
    0,0,0,0,0,0,0,0,0,0,0,0,0,0,0,0,0,0,0,0,0,0,0,0,0,0,0,0,0,0,0,0,0,0,0,0,0,0,0,0,0,0,0,1,0,0,0,0,0,0,0,0,0,0,0,0,0,0,0,0
]);
addons_usage_limits = array2d(ADDONS, USAGE_LIMITS, [
    % atlassianGuardAddOn
    0,0,0,0,0,0
]);
addons_usage_limits_extensions = array2d(ADDONS, USAGE_LIMITS, [
    % atlassianGuardAddOn
    0,0,0,0,0,0
]);
addons_available_for = array2d(ADDONS, PLANS, [
    % atlassianGuardAddOn
    1,1,1,0
]);
addons_depends_on = array2d(ADDONS, ADDONS, [
    % atlassianGuardAddOn
    0
]);
